num_offers = 30;
num_halls = 10;
start=[30,72,43,19,21,45,15,53,43,6,37,47,62,55,46,14,45,32,57,59,10,31,88,83,5,7,31,38,83,38];
end=[49,89,49,70,72,55,70,86,89,97,38,51,65,92,72,34,58,75,92,89,24,81,98,88,97,32,63,99,85,95];
price=[893,1362,555,988,3190,856,3270,3372,1103,6151,51,137,270,505,1240,436,1106,2288,834,2066,853,2782,1060,255,8639,2065,492,4462,224,2812];
requirement=[342,346,635,757,235,965,605,263,575,444,556,217,889,469,374,815,778,782,605,509,584,579,932,962,512,734,264,322,381,645];
capacity=[682,520,385,655,410,871,818,339,1000,598];
